% n80w180.003	   80.54 748
numLocations = 81;
duration = duration = duration = duration = [|0, 25, 36, 8, 23, 27, 14, 42, 32, 30, 33, 33, 33, 13, 25, 27, 35, 17, 14, 4, 11... ]; // array too long to display, dimensions: (30)
 // array too long to display, dimensions: (6481)

early = early = [0, 5, 140, 0, 52, 141, 470, 220, 24, 292, 38, 33, 104, 9, 245, 2, 81, 0, 0, 0, 3... ]; // array too long to display, dimensions: (81)

late = late = [861, 183, 348, 188, 237, 343, 652, 427, 224, 459, 190, 201, 281, 185, 425, 253, ... ]; // array too long to display, dimensions: (81)
